45 20 22 29 47 64 30 56 19 27 99 44 72 84 7 65 41 10 52 90 66 75 70 51 8 89 96 94 69 82 4 1 11 26 35 54 55 17 5 77 62 87 71 60 76 74 92 85 38 9 67 34 12 16 15 68 18 80 2 33 49 81 79 58 78 63 6 13 14 97 36 21 53 95 25 3 37 28 42 98 61 0 88 40 46 24 86 43 59 23 93 31 48 91 39 83 32 73 50 57 

